c WARNING: for repeatability, setting FPU to use double precision
d VARIABLES            61128        
d CONSTRAINTS          262365       
c ============================[ Problem Statistics ]=============================
c |                                                                             |
c |  Number of variables:         61128                                         |
c |  Number of clauses:          262365                                         |
c |  Parse time:                   0.04 s                                       |
c |                                                                             |
c ============================[ Search Statistics ]==============================
c | Conflicts |          ORIGINAL         |          LEARNT          | Progress |
c |           |    Vars  Clauses Literals |    Limit  Clauses Lit/Cl |          |
c ===============================================================================
c |       100 |   49344   228877   556186 |    83921      100      9 | 19.278 % |
c |       250 |   49344   228877   556186 |    92313      250     21 | 19.278 % |
c |       475 |   49344   228877   556186 |   101545      475     46 | 19.278 % |
c |       812 |   49344   228877   556186 |   111699      812     49 | 19.278 % |
c |      1318 |   49344   228877   556186 |   122869     1318     59 | 19.278 % |
c |      2077 |   49344   228877   556186 |   135156     2077     60 | 19.278 % |
c |      3216 |   49337   228843   556104 |   148672     3215     70 | 19.289 % |
c |      4924 |   49337   228843   556104 |   163539     4923     70 | 19.289 % |
c |      7486 |   49337   228843   556104 |   179893     7485     95 | 19.289 % |
c |     11330 |   49337   228843   556104 |   197882    11329     92 | 19.289 % |
c |     17096 |   49337   228843   556104 |   217670    17095    104 | 19.289 % |
c |     25745 |   49337   228843   556104 |   239438    25744    114 | 19.289 % |
c |     38719 |   49337   228843   556104 |   263381    38718    126 | 19.289 % |
c |     58180 |   49337   228843   556104 |   289720    58179    139 | 19.289 % |
c |     87372 |   49337   228843   556104 |   318692    87371    150 | 19.289 % |
c |    131161 |   49337   228843   556104 |   350561   131160    152 | 19.289 % |
c |    196845 |   49337   228843   556104 |   385617   196844    157 | 19.289 % |
c |    295371 |   49337   228843   556104 |   424179   295370    168 | 19.289 % |
c |    443160 |   49337   228843   556104 |   466596    29616    132 | 19.289 % |
c |    664843 |   49337   228843   556104 |   513256   251299    160 | 19.289 % |
c |    997368 |   49330   228809   556022 |   564582    67469    194 | 19.300 % |
c |   1496156 |   49330   228809   556022 |   621040   566257    167 | 19.300 % |
c |   2244338 |   49330   228809   556022 |   683144    84369    192 | 19.300 % |
c ===============================================================================
c restarts              : 5386
c conflicts             : 3079235        (1721 /sec)
c decisions             : 8180700        (0.00 % random) (4573 /sec)
c propagations          : 3629881453     (2029286 /sec)
c conflict literals     : 542021758      (31.57 % deleted)
d RESTARTS             5386
d FAILURES             3079235      
d NODES                8180700      
d BACKTRACKS           8180700      
d PROPAGATIONS         3629881453   
d NOGOODSIZE           176.02 
d MEMORY               705.00 
d TIME                 1788.75 

s UNKNOWN
